*SPEF "IEEE 1481-1998"
*DESIGN "kestrel_pll_top"
*DATE "generated by layopt"
*VENDOR "Cameron EDA"
*PROGRAM "layopt"
*VERSION "0.1"
*DESIGN_FLOW "EXTRACTION"
*DIVIDER /
*DELIMITER :
*BUS_DELIMITER [ ]
*T_UNIT 1 PS
*C_UNIT 1 FF
*R_UNIT 1 OHM
*L_UNIT 1 HENRY

*NAME_MAP
*1 1
*2 2
*3 3
*4 4
*5 5
*6 6
*7 7
*8 8
*9 9
*10 10
*11 11
*12 12
*13 13
*14 14
*15 15
*16 16
*17 17
*18 18
*19 19
*20 20
*21 21
*22 22
*23 23
*24 24
*25 25
*26 26
*27 27
*28 28
*29 29
*30 30
*31 31
*32 32
*33 33
*34 34
*35 35
*36 36
*37 37
*38 38
*39 39
*40 40
*41 41
*42 42
*43 43
*44 44
*45 45
*46 46
*47 47
*48 48
*49 49
*50 50
*51 51
*52 52
*53 53
*54 54
*55 55
*56 56
*57 57
*58 58
*59 59
*60 60
*61 61
*62 62
*63 63
*64 64
*65 65
*66 66
*67 67
*68 68
*69 69
*70 70
*71 71
*72 72
*73 73
*74 74
*75 75
*76 76
*77 77
*78 78
*79 79
*80 80
*81 81
*82 82
*83 83
*84 84
*85 85
*86 86
*87 87
*88 88
*89 89
*90 90
*91 91
*92 92
*93 93
*94 94
*95 95
*96 96
*97 97
*98 98
*99 99
*100 100
*101 101
*102 102
*103 103
*104 104
*105 105
*106 106
*107 107
*108 108
*109 109
*110 110
*111 111
*112 112
*113 113
*114 114
*115 115
*116 116
*117 117
*118 118
*119 119
*120 120
*121 121
*122 122
*123 123
*124 124
*125 125
*126 126
*127 127
*128 128
*129 129
*130 130
*131 131
*132 132
*133 133
*134 134
*135 135
*136 136
*137 137
*138 138
*139 139
*140 140
*141 141
*142 142
*143 143
*144 144
*145 145
*146 146
*147 147
*148 148
*149 149
*150 150
*151 151
*152 152
*153 153
*154 154
*155 155
*156 156
*157 157
*158 158
*159 159
*160 160
*161 161
*162 162
*163 163
*164 164
*165 165
*166 166
*167 167
*168 168
*169 169
*170 170
*171 171
*172 172
*173 173
*174 174
*175 175
*176 176
*177 177
*178 178
*179 179
*180 180
*181 181
*182 182
*183 183
*184 184
*185 185
*186 186
*187 187
*188 188
*189 189
*190 190
*191 191
*192 192
*193 193
*194 194
*195 195
*196 196
*197 197
*198 198
*199 199
*200 200
*201 201
*202 202
*203 203
*204 204
*205 205
*206 206
*207 207
*208 208
*209 209
*210 210
*211 211
*212 212
*213 213
*214 214
*215 215
*216 216
*217 217
*218 218
*219 219
*220 220
*221 221
*222 222
*223 223
*224 224
*225 225
*226 226
*227 227
*228 228
*229 229
*230 230
*231 231
*232 232
*233 233
*234 234
*235 235
*236 236
*237 237
*238 238
*239 239
*240 240
*241 241
*242 242
*243 243
*244 244
*245 245
*246 246
*247 247
*248 248
*249 249
*250 250
*251 251
*252 252
*253 253
*254 254
*255 255
*256 256
*257 257
*258 258
*259 259
*260 260
*261 261
*262 262
*263 263
*264 264
*265 265
*266 266
*267 267
*268 268
*269 269
*270 270
*271 271
*272 272
*273 273
*274 274
*275 275
*276 276
*277 277
*278 278
*279 279
*280 280
*281 281
*282 282
*283 283
*284 284
*285 285
*286 286
*287 287
*288 288
*289 289
*290 290
*291 291
*292 292
*293 293
*294 294
*295 295
*296 296
*297 297
*298 298
*299 299
*300 300
*301 301
*302 302
*303 303
*304 304
*305 305
*306 306
*307 307
*308 308
*309 309
*310 310
*311 311
*312 312
*313 313
*314 314
*315 315
*316 316
*317 317
*318 318
*319 319
*320 320
*321 321
*322 322
*323 323
*324 324
*325 325
*326 326
*327 327
*328 328
*329 329
*330 330
*331 331
*332 332
*333 333
*334 334
*335 335
*336 336
*337 337
*338 338
*339 339
*340 340
*341 341
*342 342
*343 343
*344 344
*345 345
*346 346
*347 347
*348 348
*349 349
*350 350
*351 351
*352 352
*353 353
*354 354
*355 355
*356 356
*357 357

*D_NET *1 59.0236
*CAP
1 *1 59.0236
*RES
1 *1 *0 1345.73
*END

*D_NET *2 3.16399
*CAP
1 *2 3.16399
*RES
1 *2 *0 22.2975
*END

*D_NET *3 17.1112
*CAP
1 *3 17.1112
*RES
1 *3 *0 47.7977
*END

*D_NET *4 1.14451
*CAP
1 *4 1.14451
*RES
1 *4 *0 1071.07
*END

*D_NET *5 1.99458
*CAP
1 *5 1.99458
*RES
1 *5 *0 1234.74
*END

*D_NET *6 0.0835016
*CAP
1 *6 0.0835016
*RES
1 *6 *0 4.5
*END

*D_NET *7 0.0835016
*CAP
1 *7 0.0835016
*RES
1 *7 *0 4.5
*END

*D_NET *8 0.0835016
*CAP
1 *8 0.0835016
*RES
1 *8 *0 4.5
*END

*D_NET *9 0.837474
*CAP
1 *9 0.837474
*RES
1 *9 *0 883.7
*END

*D_NET *10 0.837474
*CAP
1 *10 0.837474
*RES
1 *10 *0 883.7
*END

*D_NET *11 0.087004
*CAP
1 *11 0.087004
*END

*D_NET *12 0.761139
*CAP
1 *12 0.761139
*END

*D_NET *13 0.684837
*CAP
1 *13 0.684837
*END

*D_NET *14 0.684837
*CAP
1 *14 0.684837
*END

*D_NET *15 0.684837
*CAP
1 *15 0.684837
*END

*D_NET *16 0.795525
*CAP
1 *16 0.795525
*RES
1 *16 *0 872.3
*END

*D_NET *17 0.795525
*CAP
1 *17 0.795525
*RES
1 *17 *0 872.3
*END

*D_NET *18 0.795525
*CAP
1 *18 0.795525
*RES
1 *18 *0 872.3
*END

*D_NET *19 0.087004
*CAP
1 *19 0.087004
*END

*D_NET *20 0.684837
*CAP
1 *20 0.684837
*END

*D_NET *21 0.684837
*CAP
1 *21 0.684837
*END

*D_NET *22 0.684837
*CAP
1 *22 0.684837
*END

*D_NET *23 0.795525
*CAP
1 *23 0.795525
*RES
1 *23 *0 872.3
*END

*D_NET *24 0.795525
*CAP
1 *24 0.795525
*RES
1 *24 *0 872.3
*END

*D_NET *25 0.795525
*CAP
1 *25 0.795525
*RES
1 *25 *0 872.3
*END

*D_NET *26 0.795525
*CAP
1 *26 0.795525
*RES
1 *26 *0 872.3
*END

*D_NET *27 0.684837
*CAP
1 *27 0.684837
*END

*D_NET *28 0.684837
*CAP
1 *28 0.684837
*END

*D_NET *29 0.684837
*CAP
1 *29 0.684837
*END

*D_NET *30 0.795525
*CAP
1 *30 0.795525
*RES
1 *30 *0 872.3
*END

*D_NET *31 0.795525
*CAP
1 *31 0.795525
*RES
1 *31 *0 872.3
*END

*D_NET *32 0.795525
*CAP
1 *32 0.795525
*RES
1 *32 *0 872.3
*END

*D_NET *33 0.684837
*CAP
1 *33 0.684837
*END

*D_NET *34 0.684837
*CAP
1 *34 0.684837
*END

*D_NET *35 0.684837
*CAP
1 *35 0.684837
*END

*D_NET *36 0.795525
*CAP
1 *36 0.795525
*RES
1 *36 *0 872.3
*END

*D_NET *37 0.795525
*CAP
1 *37 0.795525
*RES
1 *37 *0 872.3
*END

*D_NET *38 0.795525
*CAP
1 *38 0.795525
*RES
1 *38 *0 872.3
*END

*D_NET *39 0.795525
*CAP
1 *39 0.795525
*RES
1 *39 *0 872.3
*END

*D_NET *40 1.14451
*CAP
1 *40 1.14451
*RES
1 *40 *0 1071.07
*END

*D_NET *41 1.99458
*CAP
1 *41 1.99458
*RES
1 *41 *0 1234.74
*END

*D_NET *42 0.0835016
*CAP
1 *42 0.0835016
*RES
1 *42 *0 4.5
*END

*D_NET *43 0.0835016
*CAP
1 *43 0.0835016
*RES
1 *43 *0 4.5
*END

*D_NET *44 0.0835016
*CAP
1 *44 0.0835016
*RES
1 *44 *0 4.5
*END

*D_NET *45 0.837474
*CAP
1 *45 0.837474
*RES
1 *45 *0 883.7
*END

*D_NET *46 0.837474
*CAP
1 *46 0.837474
*RES
1 *46 *0 883.7
*END

*D_NET *47 0.087004
*CAP
1 *47 0.087004
*END

*D_NET *48 0.761139
*CAP
1 *48 0.761139
*END

*D_NET *49 0.684837
*CAP
1 *49 0.684837
*END

*D_NET *50 0.684837
*CAP
1 *50 0.684837
*END

*D_NET *51 0.684837
*CAP
1 *51 0.684837
*END

*D_NET *52 0.795525
*CAP
1 *52 0.795525
*RES
1 *52 *0 872.3
*END

*D_NET *53 0.795525
*CAP
1 *53 0.795525
*RES
1 *53 *0 872.3
*END

*D_NET *54 0.795525
*CAP
1 *54 0.795525
*RES
1 *54 *0 872.3
*END

*D_NET *55 0.087004
*CAP
1 *55 0.087004
*END

*D_NET *56 0.684837
*CAP
1 *56 0.684837
*END

*D_NET *57 0.684837
*CAP
1 *57 0.684837
*END

*D_NET *58 0.684837
*CAP
1 *58 0.684837
*END

*D_NET *59 0.795525
*CAP
1 *59 0.795525
*RES
1 *59 *0 872.3
*END

*D_NET *60 0.795525
*CAP
1 *60 0.795525
*RES
1 *60 *0 872.3
*END

*D_NET *61 0.795525
*CAP
1 *61 0.795525
*RES
1 *61 *0 872.3
*END

*D_NET *62 0.795525
*CAP
1 *62 0.795525
*RES
1 *62 *0 872.3
*END

*D_NET *63 0.684837
*CAP
1 *63 0.684837
*END

*D_NET *64 0.684837
*CAP
1 *64 0.684837
*END

*D_NET *65 0.684837
*CAP
1 *65 0.684837
*END

*D_NET *66 0.795525
*CAP
1 *66 0.795525
*RES
1 *66 *0 872.3
*END

*D_NET *67 0.795525
*CAP
1 *67 0.795525
*RES
1 *67 *0 872.3
*END

*D_NET *68 0.795525
*CAP
1 *68 0.795525
*RES
1 *68 *0 872.3
*END

*D_NET *69 0.684837
*CAP
1 *69 0.684837
*END

*D_NET *70 0.684837
*CAP
1 *70 0.684837
*END

*D_NET *71 0.684837
*CAP
1 *71 0.684837
*END

*D_NET *72 0.795525
*CAP
1 *72 0.795525
*RES
1 *72 *0 872.3
*END

*D_NET *73 0.795525
*CAP
1 *73 0.795525
*RES
1 *73 *0 872.3
*END

*D_NET *74 0.795525
*CAP
1 *74 0.795525
*RES
1 *74 *0 872.3
*END

*D_NET *75 0.795525
*CAP
1 *75 0.795525
*RES
1 *75 *0 872.3
*END

*D_NET *76 1.14451
*CAP
1 *76 1.14451
*RES
1 *76 *0 1071.07
*END

*D_NET *77 1.99458
*CAP
1 *77 1.99458
*RES
1 *77 *0 1234.74
*END

*D_NET *78 0.0835016
*CAP
1 *78 0.0835016
*RES
1 *78 *0 4.5
*END

*D_NET *79 0.0835016
*CAP
1 *79 0.0835016
*RES
1 *79 *0 4.5
*END

*D_NET *80 0.0835016
*CAP
1 *80 0.0835016
*RES
1 *80 *0 4.5
*END

*D_NET *81 0.837474
*CAP
1 *81 0.837474
*RES
1 *81 *0 883.7
*END

*D_NET *82 0.837474
*CAP
1 *82 0.837474
*RES
1 *82 *0 883.7
*END

*D_NET *83 0.087004
*CAP
1 *83 0.087004
*END

*D_NET *84 0.761139
*CAP
1 *84 0.761139
*END

*D_NET *85 0.684837
*CAP
1 *85 0.684837
*END

*D_NET *86 0.684837
*CAP
1 *86 0.684837
*END

*D_NET *87 0.684837
*CAP
1 *87 0.684837
*END

*D_NET *88 0.795525
*CAP
1 *88 0.795525
*RES
1 *88 *0 872.3
*END

*D_NET *89 0.795525
*CAP
1 *89 0.795525
*RES
1 *89 *0 872.3
*END

*D_NET *90 0.795525
*CAP
1 *90 0.795525
*RES
1 *90 *0 872.3
*END

*D_NET *91 0.087004
*CAP
1 *91 0.087004
*END

*D_NET *92 0.684837
*CAP
1 *92 0.684837
*END

*D_NET *93 0.684837
*CAP
1 *93 0.684837
*END

*D_NET *94 0.684837
*CAP
1 *94 0.684837
*END

*D_NET *95 0.795525
*CAP
1 *95 0.795525
*RES
1 *95 *0 872.3
*END

*D_NET *96 0.795525
*CAP
1 *96 0.795525
*RES
1 *96 *0 872.3
*END

*D_NET *97 0.795525
*CAP
1 *97 0.795525
*RES
1 *97 *0 872.3
*END

*D_NET *98 0.795525
*CAP
1 *98 0.795525
*RES
1 *98 *0 872.3
*END

*D_NET *99 0.684837
*CAP
1 *99 0.684837
*END

*D_NET *100 0.684837
*CAP
1 *100 0.684837
*END

*D_NET *101 0.684837
*CAP
1 *101 0.684837
*END

*D_NET *102 0.795525
*CAP
1 *102 0.795525
*RES
1 *102 *0 872.3
*END

*D_NET *103 0.795525
*CAP
1 *103 0.795525
*RES
1 *103 *0 872.3
*END

*D_NET *104 0.795525
*CAP
1 *104 0.795525
*RES
1 *104 *0 872.3
*END

*D_NET *105 0.684837
*CAP
1 *105 0.684837
*END

*D_NET *106 0.684837
*CAP
1 *106 0.684837
*END

*D_NET *107 0.684837
*CAP
1 *107 0.684837
*END

*D_NET *108 0.795525
*CAP
1 *108 0.795525
*RES
1 *108 *0 872.3
*END

*D_NET *109 0.795525
*CAP
1 *109 0.795525
*RES
1 *109 *0 872.3
*END

*D_NET *110 0.795525
*CAP
1 *110 0.795525
*RES
1 *110 *0 872.3
*END

*D_NET *111 0.795525
*CAP
1 *111 0.795525
*RES
1 *111 *0 872.3
*END

*D_NET *112 1.14451
*CAP
1 *112 1.14451
*RES
1 *112 *0 1071.07
*END

*D_NET *113 1.99458
*CAP
1 *113 1.99458
*RES
1 *113 *0 1234.74
*END

*D_NET *114 0.0835016
*CAP
1 *114 0.0835016
*RES
1 *114 *0 4.5
*END

*D_NET *115 0.0835016
*CAP
1 *115 0.0835016
*RES
1 *115 *0 4.5
*END

*D_NET *116 0.0835016
*CAP
1 *116 0.0835016
*RES
1 *116 *0 4.5
*END

*D_NET *117 0.837474
*CAP
1 *117 0.837474
*RES
1 *117 *0 883.7
*END

*D_NET *118 0.837474
*CAP
1 *118 0.837474
*RES
1 *118 *0 883.7
*END

*D_NET *119 0.087004
*CAP
1 *119 0.087004
*END

*D_NET *120 0.761139
*CAP
1 *120 0.761139
*END

*D_NET *121 0.684837
*CAP
1 *121 0.684837
*END

*D_NET *122 0.684837
*CAP
1 *122 0.684837
*END

*D_NET *123 0.684837
*CAP
1 *123 0.684837
*END

*D_NET *124 0.795525
*CAP
1 *124 0.795525
*RES
1 *124 *0 872.3
*END

*D_NET *125 0.795525
*CAP
1 *125 0.795525
*RES
1 *125 *0 872.3
*END

*D_NET *126 0.795525
*CAP
1 *126 0.795525
*RES
1 *126 *0 872.3
*END

*D_NET *127 0.087004
*CAP
1 *127 0.087004
*END

*D_NET *128 0.684837
*CAP
1 *128 0.684837
*END

*D_NET *129 0.684837
*CAP
1 *129 0.684837
*END

*D_NET *130 0.684837
*CAP
1 *130 0.684837
*END

*D_NET *131 0.795525
*CAP
1 *131 0.795525
*RES
1 *131 *0 872.3
*END

*D_NET *132 0.795525
*CAP
1 *132 0.795525
*RES
1 *132 *0 872.3
*END

*D_NET *133 0.795525
*CAP
1 *133 0.795525
*RES
1 *133 *0 872.3
*END

*D_NET *134 0.795525
*CAP
1 *134 0.795525
*RES
1 *134 *0 872.3
*END

*D_NET *135 0.684837
*CAP
1 *135 0.684837
*END

*D_NET *136 0.684837
*CAP
1 *136 0.684837
*END

*D_NET *137 0.684837
*CAP
1 *137 0.684837
*END

*D_NET *138 0.795525
*CAP
1 *138 0.795525
*RES
1 *138 *0 872.3
*END

*D_NET *139 0.795525
*CAP
1 *139 0.795525
*RES
1 *139 *0 872.3
*END

*D_NET *140 0.795525
*CAP
1 *140 0.795525
*RES
1 *140 *0 872.3
*END

*D_NET *141 0.684837
*CAP
1 *141 0.684837
*END

*D_NET *142 0.684837
*CAP
1 *142 0.684837
*END

*D_NET *143 0.684837
*CAP
1 *143 0.684837
*END

*D_NET *144 0.795525
*CAP
1 *144 0.795525
*RES
1 *144 *0 872.3
*END

*D_NET *145 0.795525
*CAP
1 *145 0.795525
*RES
1 *145 *0 872.3
*END

*D_NET *146 0.795525
*CAP
1 *146 0.795525
*RES
1 *146 *0 872.3
*END

*D_NET *147 0.795525
*CAP
1 *147 0.795525
*RES
1 *147 *0 872.3
*END

*D_NET *148 0.175134
*CAP
1 *148 0.175134
*END

*D_NET *149 0.232421
*CAP
1 *149 0.232421
*RES
1 *149 *0 158.6
*END

*D_NET *150 0.232421
*CAP
1 *150 0.232421
*RES
1 *150 *0 158.6
*END

*D_NET *151 0.112184
*CAP
1 *151 0.112184
*END

*D_NET *152 0.141451
*CAP
1 *152 0.141451
*RES
1 *152 *0 79.3
*END

*D_NET *153 0.141451
*CAP
1 *153 0.141451
*RES
1 *153 *0 79.3
*END

*D_NET *154 0.112184
*CAP
1 *154 0.112184
*END

*D_NET *155 0.141451
*CAP
1 *155 0.141451
*RES
1 *155 *0 79.3
*END

*D_NET *156 0.141451
*CAP
1 *156 0.141451
*RES
1 *156 *0 79.3
*END

*D_NET *157 0.112184
*CAP
1 *157 0.112184
*END

*D_NET *158 0.141451
*CAP
1 *158 0.141451
*RES
1 *158 *0 79.3
*END

*D_NET *159 0.141451
*CAP
1 *159 0.141451
*RES
1 *159 *0 79.3
*END

*D_NET *160 0.175134
*CAP
1 *160 0.175134
*END

*D_NET *161 0.232421
*CAP
1 *161 0.232421
*RES
1 *161 *0 158.6
*END

*D_NET *162 0.232421
*CAP
1 *162 0.232421
*RES
1 *162 *0 158.6
*END

*D_NET *163 0.175134
*CAP
1 *163 0.175134
*END

*D_NET *164 0.232421
*CAP
1 *164 0.232421
*RES
1 *164 *0 158.6
*END

*D_NET *165 0.232421
*CAP
1 *165 0.232421
*RES
1 *165 *0 158.6
*END

*D_NET *166 0.175134
*CAP
1 *166 0.175134
*END

*D_NET *167 0.232421
*CAP
1 *167 0.232421
*RES
1 *167 *0 158.6
*END

*D_NET *168 0.232421
*CAP
1 *168 0.232421
*RES
1 *168 *0 158.6
*END

*D_NET *169 0.112184
*CAP
1 *169 0.112184
*END

*D_NET *170 0.141451
*CAP
1 *170 0.141451
*RES
1 *170 *0 79.3
*END

*D_NET *171 0.141451
*CAP
1 *171 0.141451
*RES
1 *171 *0 79.3
*END

*D_NET *172 0.112184
*CAP
1 *172 0.112184
*END

*D_NET *173 0.141451
*CAP
1 *173 0.141451
*RES
1 *173 *0 79.3
*END

*D_NET *174 0.141451
*CAP
1 *174 0.141451
*RES
1 *174 *0 79.3
*END

*D_NET *175 0.112184
*CAP
1 *175 0.112184
*END

*D_NET *176 0.141451
*CAP
1 *176 0.141451
*RES
1 *176 *0 79.3
*END

*D_NET *177 0.141451
*CAP
1 *177 0.141451
*RES
1 *177 *0 79.3
*END

*D_NET *178 0.175134
*CAP
1 *178 0.175134
*END

*D_NET *179 0.232421
*CAP
1 *179 0.232421
*RES
1 *179 *0 158.6
*END

*D_NET *180 0.232421
*CAP
1 *180 0.232421
*RES
1 *180 *0 158.6
*END

*D_NET *181 0.175134
*CAP
1 *181 0.175134
*END

*D_NET *182 0.232421
*CAP
1 *182 0.232421
*RES
1 *182 *0 158.6
*END

*D_NET *183 0.232421
*CAP
1 *183 0.232421
*RES
1 *183 *0 158.6
*END

*D_NET *184 0.112184
*CAP
1 *184 0.112184
*END

*D_NET *185 0.141451
*CAP
1 *185 0.141451
*RES
1 *185 *0 79.3
*END

*D_NET *186 0.141451
*CAP
1 *186 0.141451
*RES
1 *186 *0 79.3
*END

*D_NET *187 0.112184
*CAP
1 *187 0.112184
*END

*D_NET *188 0.141451
*CAP
1 *188 0.141451
*RES
1 *188 *0 79.3
*END

*D_NET *189 0.141451
*CAP
1 *189 0.141451
*RES
1 *189 *0 79.3
*END

*D_NET *190 0.175134
*CAP
1 *190 0.175134
*END

*D_NET *191 0.232421
*CAP
1 *191 0.232421
*RES
1 *191 *0 158.6
*END

*D_NET *192 0.232421
*CAP
1 *192 0.232421
*RES
1 *192 *0 158.6
*END

*D_NET *193 0.175134
*CAP
1 *193 0.175134
*END

*D_NET *194 0.232421
*CAP
1 *194 0.232421
*RES
1 *194 *0 158.6
*END

*D_NET *195 0.232421
*CAP
1 *195 0.232421
*RES
1 *195 *0 158.6
*END

*D_NET *196 0.175134
*CAP
1 *196 0.175134
*END

*D_NET *197 0.232421
*CAP
1 *197 0.232421
*RES
1 *197 *0 158.6
*END

*D_NET *198 0.232421
*CAP
1 *198 0.232421
*RES
1 *198 *0 158.6
*END

*D_NET *199 0.112184
*CAP
1 *199 0.112184
*END

*D_NET *200 0.141451
*CAP
1 *200 0.141451
*RES
1 *200 *0 79.3
*END

*D_NET *201 0.141451
*CAP
1 *201 0.141451
*RES
1 *201 *0 79.3
*END

*D_NET *202 0.710024
*CAP
1 *202 0.710024
*END

*D_NET *203 0.710024
*CAP
1 *203 0.710024
*END

*D_NET *204 0.710024
*CAP
1 *204 0.710024
*END

*D_NET *205 0.826455
*CAP
1 *205 0.826455
*RES
1 *205 *0 951.6
*END

*D_NET *206 0.826455
*CAP
1 *206 0.826455
*RES
1 *206 *0 951.6
*END

*D_NET *207 0.826455
*CAP
1 *207 0.826455
*RES
1 *207 *0 951.6
*END

*D_NET *208 0.826455
*CAP
1 *208 0.826455
*RES
1 *208 *0 951.6
*END

*D_NET *209 0.710024
*CAP
1 *209 0.710024
*END

*D_NET *210 0.710024
*CAP
1 *210 0.710024
*END

*D_NET *211 0.710024
*CAP
1 *211 0.710024
*END

*D_NET *212 0.826455
*CAP
1 *212 0.826455
*RES
1 *212 *0 951.6
*END

*D_NET *213 0.826455
*CAP
1 *213 0.826455
*RES
1 *213 *0 951.6
*END

*D_NET *214 0.826455
*CAP
1 *214 0.826455
*RES
1 *214 *0 951.6
*END

*D_NET *215 0.826455
*CAP
1 *215 0.826455
*RES
1 *215 *0 951.6
*END

*D_NET *216 0.586197
*CAP
1 *216 0.586197
*END

*D_NET *217 0.586197
*CAP
1 *217 0.586197
*END

*D_NET *218 0.586197
*CAP
1 *218 0.586197
*END

*D_NET *219 0.586197
*CAP
1 *219 0.586197
*END

*D_NET *220 0.586197
*CAP
1 *220 0.586197
*END

*D_NET *221 0.586197
*CAP
1 *221 0.586197
*END

*D_NET *222 0.826455
*CAP
1 *222 0.826455
*RES
1 *222 *0 951.6
*END

*D_NET *223 0.826455
*CAP
1 *223 0.826455
*RES
1 *223 *0 951.6
*END

*D_NET *224 0.826455
*CAP
1 *224 0.826455
*RES
1 *224 *0 951.6
*END

*D_NET *225 0.826455
*CAP
1 *225 0.826455
*RES
1 *225 *0 951.6
*END

*D_NET *226 0.826455
*CAP
1 *226 0.826455
*RES
1 *226 *0 951.6
*END

*D_NET *227 0.826455
*CAP
1 *227 0.826455
*RES
1 *227 *0 951.6
*END

*D_NET *228 0.826455
*CAP
1 *228 0.826455
*RES
1 *228 *0 951.6
*END

*D_NET *229 0.710024
*CAP
1 *229 0.710024
*END

*D_NET *230 0.826455
*CAP
1 *230 0.826455
*RES
1 *230 *0 951.6
*END

*D_NET *231 0.826455
*CAP
1 *231 0.826455
*RES
1 *231 *0 951.6
*END

*D_NET *232 0.710024
*CAP
1 *232 0.710024
*END

*D_NET *233 0.826455
*CAP
1 *233 0.826455
*RES
1 *233 *0 951.6
*END

*D_NET *234 0.826455
*CAP
1 *234 0.826455
*RES
1 *234 *0 951.6
*END

*D_NET *235 0.586197
*CAP
1 *235 0.586197
*END

*D_NET *236 0.586197
*CAP
1 *236 0.586197
*END

*D_NET *237 0.586197
*CAP
1 *237 0.586197
*END

*D_NET *238 0.826455
*CAP
1 *238 0.826455
*RES
1 *238 *0 951.6
*END

*D_NET *239 0.826455
*CAP
1 *239 0.826455
*RES
1 *239 *0 951.6
*END

*D_NET *240 0.826455
*CAP
1 *240 0.826455
*RES
1 *240 *0 951.6
*END

*D_NET *241 0.826455
*CAP
1 *241 0.826455
*RES
1 *241 *0 951.6
*END

*D_NET *242 2.72144
*CAP
1 *242 2.72144
*END

*D_NET *243 0.4
*CAP
1 *243 0.4
*END

*D_NET *244 1.024
*CAP
1 *244 1.024
*END

*D_NET *245 0.238
*CAP
1 *245 0.238
*END

*D_NET *246 0.238
*CAP
1 *246 0.238
*END

*D_NET *247 0.238
*CAP
1 *247 0.238
*END

*D_NET *248 0.238
*CAP
1 *248 0.238
*END

*D_NET *249 0.238
*CAP
1 *249 0.238
*END

*D_NET *250 0.200314
*CAP
1 *250 0.200314
*END

*D_NET *251 0.268809
*CAP
1 *251 0.268809
*RES
1 *251 *0 237.9
*END

*D_NET *252 0.268809
*CAP
1 *252 0.268809
*RES
1 *252 *0 237.9
*END

*D_NET *253 0.124774
*CAP
1 *253 0.124774
*END

*D_NET *254 0.159645
*CAP
1 *254 0.159645
*RES
1 *254 *0 79.3
*END

*D_NET *255 0.159645
*CAP
1 *255 0.159645
*RES
1 *255 *0 79.3
*END

*D_NET *256 0.200314
*CAP
1 *256 0.200314
*END

*D_NET *257 0.268809
*CAP
1 *257 0.268809
*RES
1 *257 *0 237.9
*END

*D_NET *258 0.268809
*CAP
1 *258 0.268809
*RES
1 *258 *0 237.9
*END

*D_NET *259 0.124774
*CAP
1 *259 0.124774
*END

*D_NET *260 0.159645
*CAP
1 *260 0.159645
*RES
1 *260 *0 79.3
*END

*D_NET *261 0.159645
*CAP
1 *261 0.159645
*RES
1 *261 *0 79.3
*END

*D_NET *262 0.200314
*CAP
1 *262 0.200314
*END

*D_NET *263 0.268809
*CAP
1 *263 0.268809
*RES
1 *263 *0 237.9
*END

*D_NET *264 0.268809
*CAP
1 *264 0.268809
*RES
1 *264 *0 237.9
*END

*D_NET *265 0.124774
*CAP
1 *265 0.124774
*END

*D_NET *266 0.159645
*CAP
1 *266 0.159645
*RES
1 *266 *0 79.3
*END

*D_NET *267 0.159645
*CAP
1 *267 0.159645
*RES
1 *267 *0 79.3
*END

*D_NET *268 0.200314
*CAP
1 *268 0.200314
*END

*D_NET *269 0.268809
*CAP
1 *269 0.268809
*RES
1 *269 *0 237.9
*END

*D_NET *270 0.268809
*CAP
1 *270 0.268809
*RES
1 *270 *0 237.9
*END

*D_NET *271 0.124774
*CAP
1 *271 0.124774
*END

*D_NET *272 0.159645
*CAP
1 *272 0.159645
*RES
1 *272 *0 79.3
*END

*D_NET *273 0.159645
*CAP
1 *273 0.159645
*RES
1 *273 *0 79.3
*END

*D_NET *274 0.200314
*CAP
1 *274 0.200314
*END

*D_NET *275 0.268809
*CAP
1 *275 0.268809
*RES
1 *275 *0 237.9
*END

*D_NET *276 0.268809
*CAP
1 *276 0.268809
*RES
1 *276 *0 237.9
*END

*D_NET *277 0.124774
*CAP
1 *277 0.124774
*END

*D_NET *278 0.159645
*CAP
1 *278 0.159645
*RES
1 *278 *0 79.3
*END

*D_NET *279 0.159645
*CAP
1 *279 0.159645
*RES
1 *279 *0 79.3
*END

*D_NET *280 0.200314
*CAP
1 *280 0.200314
*END

*D_NET *281 0.268809
*CAP
1 *281 0.268809
*RES
1 *281 *0 237.9
*END

*D_NET *282 0.268809
*CAP
1 *282 0.268809
*RES
1 *282 *0 237.9
*END

*D_NET *283 0.124774
*CAP
1 *283 0.124774
*END

*D_NET *284 0.159645
*CAP
1 *284 0.159645
*RES
1 *284 *0 79.3
*END

*D_NET *285 0.159645
*CAP
1 *285 0.159645
*RES
1 *285 *0 79.3
*END

*D_NET *286 0.200314
*CAP
1 *286 0.200314
*END

*D_NET *287 0.268809
*CAP
1 *287 0.268809
*RES
1 *287 *0 237.9
*END

*D_NET *288 0.268809
*CAP
1 *288 0.268809
*RES
1 *288 *0 237.9
*END

*D_NET *289 0.124774
*CAP
1 *289 0.124774
*END

*D_NET *290 0.159645
*CAP
1 *290 0.159645
*RES
1 *290 *0 79.3
*END

*D_NET *291 0.159645
*CAP
1 *291 0.159645
*RES
1 *291 *0 79.3
*END

*D_NET *292 0.200314
*CAP
1 *292 0.200314
*END

*D_NET *293 0.268809
*CAP
1 *293 0.268809
*RES
1 *293 *0 237.9
*END

*D_NET *294 0.268809
*CAP
1 *294 0.268809
*RES
1 *294 *0 237.9
*END

*D_NET *295 0.124774
*CAP
1 *295 0.124774
*END

*D_NET *296 0.159645
*CAP
1 *296 0.159645
*RES
1 *296 *0 79.3
*END

*D_NET *297 0.159645
*CAP
1 *297 0.159645
*RES
1 *297 *0 79.3
*END

*D_NET *298 0.200314
*CAP
1 *298 0.200314
*END

*D_NET *299 0.268809
*CAP
1 *299 0.268809
*RES
1 *299 *0 237.9
*END

*D_NET *300 0.268809
*CAP
1 *300 0.268809
*RES
1 *300 *0 237.9
*END

*D_NET *301 0.124774
*CAP
1 *301 0.124774
*END

*D_NET *302 0.159645
*CAP
1 *302 0.159645
*RES
1 *302 *0 79.3
*END

*D_NET *303 0.159645
*CAP
1 *303 0.159645
*RES
1 *303 *0 79.3
*END

*D_NET *304 0.200314
*CAP
1 *304 0.200314
*END

*D_NET *305 0.268809
*CAP
1 *305 0.268809
*RES
1 *305 *0 237.9
*END

*D_NET *306 0.268809
*CAP
1 *306 0.268809
*RES
1 *306 *0 237.9
*END

*D_NET *307 0.124774
*CAP
1 *307 0.124774
*END

*D_NET *308 0.159645
*CAP
1 *308 0.159645
*RES
1 *308 *0 79.3
*END

*D_NET *309 0.159645
*CAP
1 *309 0.159645
*RES
1 *309 *0 79.3
*END

*D_NET *310 0.200314
*CAP
1 *310 0.200314
*END

*D_NET *311 0.268809
*CAP
1 *311 0.268809
*RES
1 *311 *0 237.9
*END

*D_NET *312 0.268809
*CAP
1 *312 0.268809
*RES
1 *312 *0 237.9
*END

*D_NET *313 0.124774
*CAP
1 *313 0.124774
*END

*D_NET *314 0.159645
*CAP
1 *314 0.159645
*RES
1 *314 *0 79.3
*END

*D_NET *315 0.159645
*CAP
1 *315 0.159645
*RES
1 *315 *0 79.3
*END

*D_NET *316 0.200314
*CAP
1 *316 0.200314
*END

*D_NET *317 0.268809
*CAP
1 *317 0.268809
*RES
1 *317 *0 237.9
*END

*D_NET *318 0.268809
*CAP
1 *318 0.268809
*RES
1 *318 *0 237.9
*END

*D_NET *319 0.124774
*CAP
1 *319 0.124774
*END

*D_NET *320 0.159645
*CAP
1 *320 0.159645
*RES
1 *320 *0 79.3
*END

*D_NET *321 0.159645
*CAP
1 *321 0.159645
*RES
1 *321 *0 79.3
*END

*D_NET *322 0.200314
*CAP
1 *322 0.200314
*END

*D_NET *323 0.268809
*CAP
1 *323 0.268809
*RES
1 *323 *0 237.9
*END

*D_NET *324 0.268809
*CAP
1 *324 0.268809
*RES
1 *324 *0 237.9
*END

*D_NET *325 0.124774
*CAP
1 *325 0.124774
*END

*D_NET *326 0.159645
*CAP
1 *326 0.159645
*RES
1 *326 *0 79.3
*END

*D_NET *327 0.159645
*CAP
1 *327 0.159645
*RES
1 *327 *0 79.3
*END

*D_NET *328 0.200314
*CAP
1 *328 0.200314
*END

*D_NET *329 0.268809
*CAP
1 *329 0.268809
*RES
1 *329 *0 237.9
*END

*D_NET *330 0.268809
*CAP
1 *330 0.268809
*RES
1 *330 *0 237.9
*END

*D_NET *331 0.124774
*CAP
1 *331 0.124774
*END

*D_NET *332 0.159645
*CAP
1 *332 0.159645
*RES
1 *332 *0 79.3
*END

*D_NET *333 0.159645
*CAP
1 *333 0.159645
*RES
1 *333 *0 79.3
*END

*D_NET *334 0.200314
*CAP
1 *334 0.200314
*END

*D_NET *335 0.268809
*CAP
1 *335 0.268809
*RES
1 *335 *0 237.9
*END

*D_NET *336 0.268809
*CAP
1 *336 0.268809
*RES
1 *336 *0 237.9
*END

*D_NET *337 0.124774
*CAP
1 *337 0.124774
*END

*D_NET *338 0.159645
*CAP
1 *338 0.159645
*RES
1 *338 *0 79.3
*END

*D_NET *339 0.159645
*CAP
1 *339 0.159645
*RES
1 *339 *0 79.3
*END

*D_NET *340 0.200314
*CAP
1 *340 0.200314
*END

*D_NET *341 0.268809
*CAP
1 *341 0.268809
*RES
1 *341 *0 237.9
*END

*D_NET *342 0.268809
*CAP
1 *342 0.268809
*RES
1 *342 *0 237.9
*END

*D_NET *343 0.124774
*CAP
1 *343 0.124774
*END

*D_NET *344 0.159645
*CAP
1 *344 0.159645
*RES
1 *344 *0 79.3
*END

*D_NET *345 0.159645
*CAP
1 *345 0.159645
*RES
1 *345 *0 79.3
*END

*D_NET *346 0.200314
*CAP
1 *346 0.200314
*END

*D_NET *347 0.268809
*CAP
1 *347 0.268809
*RES
1 *347 *0 237.9
*END

*D_NET *348 0.268809
*CAP
1 *348 0.268809
*RES
1 *348 *0 237.9
*END

*D_NET *349 0.124774
*CAP
1 *349 0.124774
*END

*D_NET *350 0.159645
*CAP
1 *350 0.159645
*RES
1 *350 *0 79.3
*END

*D_NET *351 0.159645
*CAP
1 *351 0.159645
*RES
1 *351 *0 79.3
*END

*D_NET *352 0.200314
*CAP
1 *352 0.200314
*END

*D_NET *353 0.268809
*CAP
1 *353 0.268809
*RES
1 *353 *0 237.9
*END

*D_NET *354 0.268809
*CAP
1 *354 0.268809
*RES
1 *354 *0 237.9
*END

*D_NET *355 0.124774
*CAP
1 *355 0.124774
*END

*D_NET *356 0.159645
*CAP
1 *356 0.159645
*RES
1 *356 *0 79.3
*END

*D_NET *357 0.159645
*CAP
1 *357 0.159645
*RES
1 *357 *0 79.3
*END
